\ENCODING=ISO-8859-1
\Problem name: 

Minimize
 obj1: x23 + x24 + t
Subject To
 b_0:   x23 + 2 x24 + t >= 10.4
 b_1:   x23 + 2 x24 + t >= 10.4
 b_2:   x23 + 2 x24 + t >= 10.4
 b_3:   x23 + 2 x24 + t >= 10.4
 b_4:   x23 + 2 x24 + t >= 10.4
 b_5:   x23 + 2 x24 + t >= 10.4
 b_6:   x23 + 2 x24 + t >= 10.4
 b_7:   x23 + 2 x24 + t >= 10.4
 b_8:   x23 + 2 x24 + t >= 10.4
 b_9:   x23 + 2 x24 + t >= 10.4
 b_10:  x23 + 2 x24 + t >= 10.4
 b_11:  x23 + 2 x24 + t >= 10.4
 b_12:  x23 + 2 x24 + t >= 10.4
 b_13:  x23 + 2 x24 + t >= 10.4
 b_14:  x23 + 2 x24 + t >= 10.4
 b_15:  x23 + 2 x24 + t >= 10.4
 b_16:  x23 + 2 x24 + t >= 10.4
 b_17:  x23 + 2 x24 + t >= 10.4
 b_18:  x23 + 2 x24 + t >= 10.4
 b_19:  x23 + 2 x24 + t >= 10.4
 b_20:  x23 + 2 x24 + t >= 10.4
 b_21:  x23 + 2 x24 + t >= 10.4
 b_22:  x23 + 2 x24 + t >= 10.4
 b_23:  x23 + 2 x24 + t >= 10.4
 b_24:  x23 + 2 x24 + t >= 10.4
 b_25:  x23 + 2 x24 + t >= 10.4
 b_26:  x23 + 2 x24 + t >= 10.4
 b_27:  x23 + 2 x24 + t >= 10.4
 b_28:  x23 + 2 x24 + t >= 10.4
 b_29:  x23 + 2 x24 + t >= 10.4
 b_30:  x23 + 2 x24 + t >= 10.4
 b_31:  x23 + 2 x24 + t >= 10.4
 b_32:  x23 + 2 x24 + t >= 10.4
 b_33:  x23 + 2 x24 + t >= 10.4
 b_34:  x23 + 2 x24 + t >= 10.4
 b_35:  x23 + 2 x24 + t >= 10.4
 b_36:  x23 + 2 x24 + t >= 10.4
 b_37:  x23 + 2 x24 + t >= 10.4
 b_38:  x23 + 2 x24 + t >= 10.4
 b_39:  x23 + 2 x24 + t >= 10.4
 b_40:  x23 + 2 x24 + t >= 10.4
 b_41:  x23 + 2 x24 + t >= 10.4
 b_42:  x23 + 2 x24 + t >= 10.4
 b_43:  x23 + 2 x24 + t >= 10.4
 b_44:  x23 + 2 x24 + t >= 10.4
 b_45:  x23 + 2 x24 + t >= 10.4
 b_46:  x23 + 2 x24 + t >= 10.4
 b_47:  x23 + 2 x24 + t >= 10.4
 b_48:  x23 + 2 x24 + t >= 10.4
 b_49:  x23 + 2 x24 + t >= 10.4
 b_50:  x23 + 2 x24 + t >= 10.4
 b_51:  x23 + 2 x24 + t >= 10.4
 b_52:  x23 + 2 x24 + t >= 10.4
 b_53:  x23 + 2 x24 + t >= 10.4
 b_54:  x23 + 2 x24 + t >= 10.4
 b_55:  x23 + 2 x24 + t >= 10.4
 b_56:  x23 + 2 x24 + t >= 10.4
 b_57:  x23 + 2 x24 + t >= 10.4
 b_58:  x23 + 2 x24 + t >= 10.4
 b_59:  x23 + 2 x24 + t >= 10.4
 b_60:  x23 + 2 x24 + t >= 10.4
 b_61:  x23 + 2 x24 + t >= 10.4
 b_62:  x23 + 2 x24 + t >= 10.4
 b_63:  x23 + 2 x24 + t >= 10.4
 b_64:  x23 + 2 x24 + t >= 10.4
 b_65:  x23 + 2 x24 + t >= 10.4
 b_66:  x23 + 2 x24 + t >= 10.4
 b_67:  x23 + 2 x24 + t >= 10.4
 b_68:  x23 + 2 x24 + t >= 10.4
 b_69:  x23 + 2 x24 + t >= 10.4
 b_70:  x23 + 2 x24 + t >= 10.4
 b_71:  x23 + 2 x24 + t >= 10.4
 b_72:  x23 + 2 x24 + t >= 10.4
 b_73:  x23 + 2 x24 + t >= 10.4
 b_74:  x23 + 2 x24 + t >= 10.4
 b_75:  x23 + 2 x24 + t >= 10.4
 b_76:  x23 + 2 x24 + t >= 10.4
 b_77:  x23 + 2 x24 + t >= 10.4
 b_78:  x23 + 2 x24 + t >= 10.4
 b_79:  x23 + 2 x24 + t >= 10.4
 b_80:  x23 + 2 x24 + t >= 10.4
 b_81:  x23 + 2 x24 + t >= 10.4
 b_82:  x23 + 2 x24 + t >= 10.4
 b_83:  x23 + 2 x24 + t >= 10.4
 b_84:  x23 + 2 x24 + t >= 10.4
 b_85:  x23 + 2 x24 + t >= 10.4
 b_86:  x23 + 2 x24 + t >= 10.4
 b_87:  x23 + 2 x24 + t >= 10.4
 b_88:  x23 + 2 x24 + t >= 10.4
 b_89:  x23 + 2 x24 + t >= 10.4
 b_90:  x23 + 2 x24 + t >= 10.4
 b_91:  x23 + 2 x24 + t >= 10.4
 b_92:  x23 + 2 x24 + t >= 10.4
 b_93:  x23 + 2 x24 + t >= 10.4
 b_94:  x23 + 2 x24 + t >= 10.4
 b_95:  x23 + 2 x24 + t >= 10.4
 b_96:  x23 + 2 x24 + t >= 10.4
 b_97:  x23 + 2 x24 + t >= 10.4
 b_98:  x23 + 2 x24 + t >= 10.4
 b_99:  x23 + 2 x24 + t >= 10.4
 b_100: x23 + 2 x24 + t >= 10.4
 b_101: x23 + 2 x24 + t >= 10.4
 b_102: x23 + 2 x24 + t >= 10.4
 b_103: x23 + 2 x24 + t >= 10.4
 b_104: x23 + 2 x24 + t >= 10.4
 b_105: x23 + 2 x24 + t >= 10.4
 b_106: x23 + 2 x24 + t >= 10.4
 b_107: x23 + 2 x24 + t >= 10.4
 b_108: x23 + 2 x24 + t >= 10.4
 b_109: x23 + 2 x24 + t >= 10.4
 b_110: x23 + 2 x24 + t >= 10.4
 b_111: x23 + 2 x24 + t >= 10.4
 b_112: x23 + 2 x24 + t >= 10.4
 b_113: x23 + 2 x24 + t >= 10.4
 b_114: x23 + 2 x24 + t >= 10.4
 b_115: x23 + 2 x24 + t >= 10.4
 b_116: x23 + 2 x24 + t >= 10.4
 b_117: x23 + 2 x24 + t >= 10.4
 b_118: x23 + 2 x24 + t >= 10.4
 b_119: x23 + 2 x24 + t >= 10.4
 b_120: x23 + 2 x24 + t >= 10.4
 b_121: x23 + 2 x24 + t >= 10.4
 b_122: x23 + 2 x24 + t >= 10.4
 b_123: x23 + 2 x24 + t >= 10.4
 b_124: x23 + 2 x24 + t >= 10.4
 b_125: x23 + 2 x24 + t >= 10.4
 b_126: x23 + 2 x24 + t >= 10.4
 b_127: x23 + 2 x24 + t >= 10.4
 b_128: x23 + 2 x24 + t >= 10.4
 b_129: x23 + 2 x24 + t >= 10.4
 b_130: x23 + 2 x24 + t >= 10.4
 b_131: x23 + 2 x24 + t >= 10.4
 b_132: x23 + 2 x24 + t >= 10.4
 b_133: x23 + 2 x24 + t >= 10.4
 b_134: x23 + 2 x24 + t >= 10.4
 b_135: x23 + 2 x24 + t >= 10.4
 b_136: x23 + 2 x24 + t >= 10.4
 b_137: x23 + 2 x24 + t >= 10.4
 b_138: x23 + 2 x24 + t >= 10.4
 b_139: x23 + 2 x24 + t >= 10.4
 b_140: x23 + 2 x24 + t >= 10.4
 b_141: x23 + 2 x24 + t >= 10.4
 b_142: x23 + 2 x24 + t >= 10.4
 b_143: x23 + 2 x24 + t >= 10.4
 b_144: x23 + 2 x24 + t >= 10.4
 b_145: x23 + 2 x24 + t >= 10.4
 b_146: x23 + 2 x24 + t >= 10.4
 b_147: x23 + 2 x24 + t >= 10.4
 b_148: x23 + 2 x24 + t >= 10.4
 b_149: x23 + 2 x24 + t >= 10.4
 b_150: x23 + 2 x24 + t >= 10.4
 b_151: x23 + 2 x24 + t >= 10.4
 b_152: x23 + 2 x24 + t >= 10.4
 b_153: x23 + 2 x24 + t >= 10.4
 b_154: x23 + 2 x24 + t >= 10.4
 b_155: x23 + 2 x24 + t >= 10.4
 b_156: x23 + 2 x24 + t >= 10.4
 b_157: x23 + 2 x24 + t >= 10.4
 b_158: x23 + 2 x24 + t >= 10.4
 b_159: x23 + 2 x24 + t >= 10.4
 b_160: x23 + 2 x24 + t >= 10.4
 b_161: x23 + 2 x24 + t >= 10.4
 b_162: x23 + 2 x24 + t >= 10.4
 b_163: x23 + 2 x24 + t >= 10.4
 b_164: x23 + 2 x24 + t >= 10.4
 b_165: x23 + 2 x24 + t >= 10.4
 b_166: x23 + 2 x24 + t >= 10.4
 b_167: x23 + 2 x24 + t >= 10.4
 b_168: x23 + 2 x24 + t >= 10.4
 b_169: x23 + 2 x24 + t >= 10.4
 b_170: x23 + 2 x24 + t >= 10.4
 b_171: x23 + 2 x24 + t >= 10.4
 b_172: x23 + 2 x24 + t >= 10.4
 b_173: x23 + 2 x24 + t >= 10.4
 b_174: x23 + 2 x24 + t >= 10.4
 b_175: x23 + 2 x24 + t >= 10.4
 b_176: x23 + 2 x24 + t >= 10.4
 b_177: x23 + 2 x24 + t >= 10.4
 b_178: x23 + 2 x24 + t >= 10.4
 b_179: x23 + 2 x24 + t >= 10.4
 b_180: x23 + 2 x24 + t >= 10.4
 b_181: x23 + 2 x24 + t >= 10.4
 b_182: x23 + 2 x24 + t >= 10.4
 b_183: x23 + 2 x24 + t >= 10.4
 b_184: x23 + 2 x24 + t >= 10.4
 b_185: x23 + 2 x24 + t >= 10.4
 b_186: x23 + 2 x24 + t >= 10.4
 b_187: x23 + 2 x24 + t >= 10.4
 b_188: x23 + 2 x24 + t >= 10.4
 b_189: x23 + 2 x24 + t >= 10.4
 b_190: x23 + 2 x24 + t >= 10.4
 b_191: x23 + 2 x24 + t >= 10.4
 b_192: x23 + 2 x24 + t >= 10.4
 b_193: x23 + 2 x24 + t >= 10.4
 b_194: x23 + 2 x24 + t >= 10.4
 b_195: x23 + 2 x24 + t >= 10.4
 b_196: x23 + 2 x24 + t >= 10.4
 b_197: x23 + 2 x24 + t >= 10.4
 b_198: x23 + 2 x24 + t >= 10.4
 b_199: x23 + 2 x24 + t >= 10.4
 b_200: x23 + 2 x24 + t >= 10.4
 b_201: x23 + 2 x24 + t >= 10.4
 b_202: x23 + 2 x24 + t >= 10.4
 b_203: x23 + 2 x24 + t >= 10.4
 b_204: x23 + 2 x24 + t >= 10.4
 b_205: x23 + 2 x24 + t >= 10.4
 b_206: x23 + 2 x24 + t >= 10.4
 b_207: x23 + 2 x24 + t >= 10.4
 b_208: x23 + 2 x24 + t >= 10.4
 b_209: x23 + 2 x24 + t >= 10.4
 b_210: x23 + 2 x24 + t >= 10.4
 b_211: x23 + 2 x24 + t >= 10.4
 b_212: x23 + 2 x24 + t >= 10.4
 b_213: x23 + 2 x24 + t >= 10.4
 b_214: x23 + 2 x24 + t >= 10.4
 b_215: x23 + 2 x24 + t >= 10.4
 b_216: x23 + 2 x24 + t >= 10.4
 b_217: x23 + 2 x24 + t >= 10.4
 b_218: x23 + 2 x24 + t >= 10.4
 b_219: x23 + 2 x24 + t >= 10.4
 b_220: x23 + 2 x24 + t >= 10.4
 b_221: x23 + 2 x24 + t >= 10.4
 b_222: x23 + 2 x24 + t >= 10.4
 b_223: x23 + 2 x24 + t >= 10.4
 b_224: x23 + 2 x24 + t >= 10.4
 b_225: x23 + 2 x24 + t >= 10.4
 b_226: x23 + 2 x24 + t >= 10.4
 b_227: x23 + 2 x24 + t >= 10.4
 b_228: x23 + 2 x24 + t >= 10.4
 b_229: x23 + 2 x24 + t >= 10.4
 b_230: x23 + 2 x24 + t >= 10.4
 b_231: x23 + 2 x24 + t >= 10.4
 b_232: x23 + 2 x24 + t >= 10.4
 b_233: x23 + 2 x24 + t >= 10.4
 b_234: x23 + 2 x24 + t >= 10.4
 b_235: x23 + 2 x24 + t >= 10.4
 b_236: x23 + 2 x24 + t >= 10.4
 b_237: x23 + 2 x24 + t >= 10.4
 b_238: x23 + 2 x24 + t >= 10.4
 b_239: x23 + 2 x24 + t >= 10.4
 b_240: x23 + 2 x24 + t >= 10.4
 b_241: x23 + 2 x24 + t >= 10.4
 b_242: x23 + 2 x24 + t >= 10.4
 b_243: x23 + 2 x24 + t >= 10.4
 b_244: x23 + 2 x24 + t >= 10.4
 b_245: x23 + 2 x24 + t >= 10.4
 b_246: x23 + 2 x24 + t >= 10.4
 b_247: x23 + 2 x24 + t >= 10.4
 b_248: x23 + 2 x24 + t >= 10.4
 b_249: x23 + 2 x24 + t >= 10.4
 b_250: x23 + 2 x24 + t >= 10.4
 b_251: x23 + 2 x24 + t >= 10.4
 b_252: x23 + 2 x24 + t >= 10.4
 b_253: x23 + 2 x24 + t >= 10.4
 b_254: x23 + 2 x24 + t >= 10.4
 b_255: x23 + 2 x24 + t >= 10.4
 b_256: x23 + 2 x24 + t >= 10.4
 b_257: x23 + 2 x24 + t >= 10.4
 b_258: x23 + 2 x24 + t >= 10.4
 b_259: x23 + 2 x24 + t >= 10.4
 b_260: x23 + 2 x24 + t >= 10.4
 b_261: x23 + 2 x24 + t >= 10.4
 b_262: x23 + 2 x24 + t >= 10.4
 b_263: x23 + 2 x24 + t >= 10.4
 b_264: x23 + 2 x24 + t >= 10.4
 b_265: x23 + 2 x24 + t >= 10.4
 b_266: x23 + 2 x24 + t >= 10.4
 b_267: x23 + 2 x24 + t >= 10.4
 b_268: x23 + 2 x24 + t >= 10.4
 b_269: x23 + 2 x24 + t >= 10.4
 b_270: x23 + 2 x24 + t >= 10.4
 b_271: x23 + 2 x24 + t >= 10.4
 b_272: x23 + 2 x24 + t >= 10.4
 b_273: x23 + 2 x24 + t >= 10.4
 b_274: x23 + 2 x24 + t >= 10.4
 b_275: x23 + 2 x24 + t >= 10.4
 b_276: x23 + 2 x24 + t >= 10.4
 b_277: x23 + 2 x24 + t >= 10.4
 b_278: x23 + 2 x24 + t >= 10.4
 b_279: x23 + 2 x24 + t >= 10.4
 b_280: x23 + 2 x24 + t >= 10.4
 b_281: x23 + 2 x24 + t >= 10.4
 b_282: x23 + 2 x24 + t >= 10.4
 b_283: x23 + 2 x24 + t >= 10.4
 b_284: x23 + 2 x24 + t >= 10.4
 b_285: x23 + 2 x24 + t >= 10.4
 b_286: x23 + 2 x24 + t >= 10.4
 b_287: x23 + 2 x24 + t >= 10.4
 b_288: x23 + 2 x24 + t >= 10.4
 b_289: x23 + 2 x24 + t >= 10.4
 b_290: x23 + 2 x24 + t >= 10.4
 b_291: x23 + 2 x24 + t >= 10.4
 b_292: x23 + 2 x24 + t >= 10.4
 b_293: x23 + 2 x24 + t >= 10.4
 b_294: x23 + 2 x24 + t >= 10.4
 b_295: x23 + 2 x24 + t >= 10.4
 b_296: x23 + 2 x24 + t >= 10.4
 b_297: x23 + 2 x24 + t >= 10.4
 b_298: x23 + 2 x24 + t >= 10.4
 b_299: x23 + 2 x24 + t >= 10.4
 b_300: x23 + 2 x24 + t >= 10.4
 b_301: x23 + 2 x24 + t >= 10.4
 b_302: x23 + 2 x24 + t >= 10.4
 b_303: x23 + 2 x24 + t >= 10.4
 b_304: x23 + 2 x24 + t >= 10.4
 b_305: x23 + 2 x24 + t >= 10.4
 b_306: x23 + 2 x24 + t >= 10.4
 b_307: x23 + 2 x24 + t >= 10.4
 b_308: x23 + 2 x24 + t >= 10.4
 b_309: x23 + 2 x24 + t >= 10.4
 b_310: x23 + 2 x24 + t >= 10.4
 b_311: x23 + 2 x24 + t >= 10.4
 b_312: x23 + 2 x24 + t >= 10.4
 b_313: x23 + 2 x24 + t >= 10.4
 b_314: x23 + 2 x24 + t >= 10.4
 b_315: x23 + 2 x24 + t >= 10.4
 b_316: x23 + 2 x24 + t >= 10.4
 b_317: x23 + 2 x24 + t >= 10.4
 b_318: x23 + 2 x24 + t >= 10.4
 b_319: x23 + 2 x24 + t >= 10.4
 b_320: x23 + 2 x24 + t >= 10.4
 b_321: x23 + 2 x24 + t >= 10.4
 b_322: x23 + 2 x24 + t >= 10.4
 b_323: x23 + 2 x24 + t >= 10.4
 b_324: x23 + 2 x24 + t >= 10.4
 b_325: x23 + 2 x24 + t >= 10.4
 b_326: x23 + 2 x24 + t >= 10.4
 b_327: x23 + 2 x24 + t >= 10.4
 b_328: x23 + 2 x24 + t >= 10.4
 b_329: x23 + 2 x24 + t >= 10.4
 b_330: x23 + 2 x24 + t >= 10.4
 b_331: x23 + 2 x24 + t >= 10.4
 b_332: x23 + 2 x24 + t >= 10.4
 b_333: x23 + 2 x24 + t >= 10.4
 b_334: x23 + 2 x24 + t >= 10.4
 b_335: x23 + 2 x24 + t >= 10.4
 b_336: x23 + 2 x24 + t >= 10.4
 b_337: x23 + 2 x24 + t >= 10.4
 b_338: x23 + 2 x24 + t >= 10.4
 b_339: x23 + 2 x24 + t >= 10.4
 b_340: x23 + 2 x24 + t >= 10.4
 b_341: x23 + 2 x24 + t >= 10.4
 b_342: x23 + 2 x24 + t >= 10.4
 b_343: x23 + 2 x24 + t >= 10.4
 b_344: x23 + 2 x24 + t >= 10.4
 b_345: x23 + 2 x24 + t >= 10.4
 b_346: x23 + 2 x24 + t >= 10.4
 b_347: x23 + 2 x24 + t >= 10.4
 b_348: x23 + 2 x24 + t >= 10.4
 b_349: x23 + 2 x24 + t >= 10.4
 b_350: x23 + 2 x24 + t >= 10.4
 b_351: x23 + 2 x24 + t >= 10.4
 b_352: x23 + 2 x24 + t >= 10.4
 b_353: x23 + 2 x24 + t >= 10.4
 b_354: x23 + 2 x24 + t >= 10.4
 b_355: x23 + 2 x24 + t >= 10.4
 b_356: x23 + 2 x24 + t >= 10.4
 b_357: x23 + 2 x24 + t >= 10.4
 b_358: x23 + 2 x24 + t >= 10.4
 b_359: x23 + 2 x24 + t >= 10.4
 b_360: x23 + 2 x24 + t >= 10.4
 b_361: x23 + 2 x24 + t >= 10.4
 b_362: x23 + 2 x24 + t >= 10.4
 b_363: x23 + 2 x24 + t >= 10.4
 b_364: x23 + 2 x24 + t >= 10.4
 b_365: x23 + 2 x24 + t >= 10.4
 b_366: x23 + 2 x24 + t >= 10.4
 b_367: x23 + 2 x24 + t >= 10.4
 b_368: x23 + 2 x24 + t >= 10.4
 b_369: x23 + 2 x24 + t >= 10.4
 b_370: x23 + 2 x24 + t >= 10.4
 b_371: x23 + 2 x24 + t >= 10.4
 b_372: x23 + 2 x24 + t >= 10.4
 b_373: x23 + 2 x24 + t >= 10.4
 b_374: x23 + 2 x24 + t >= 10.4
 b_375: x23 + 2 x24 + t >= 10.4
 b_376: x23 + 2 x24 + t >= 10.4
 b_377: x23 + 2 x24 + t >= 10.4
 b_378: x23 + 2 x24 + t >= 10.4
 b_379: x23 + 2 x24 + t >= 10.4
 b_380: x23 + 2 x24 + t >= 10.4
 b_381: x23 + 2 x24 + t >= 10.4
 b_382: x23 + 2 x24 + t >= 10.4
 b_383: x23 + 2 x24 + t >= 10.4
 b_384: x23 + 2 x24 + t >= 10.4
 b_385: x23 + 2 x24 + t >= 10.4
 b_386: x23 + 2 x24 + t >= 10.4
 b_387: x23 + 2 x24 + t >= 10.4
 b_388: x23 + 2 x24 + t >= 10.4
 b_389: x23 + 2 x24 + t >= 10.4
 b_390: x23 + 2 x24 + t >= 10.4
 b_391: x23 + 2 x24 + t >= 10.4
 b_392: x23 + 2 x24 + t >= 10.4
 b_393: x23 + 2 x24 + t >= 10.4
 b_394: x23 + 2 x24 + t >= 10.4
 b_395: x23 + 2 x24 + t >= 10.4
 b_396: x23 + 2 x24 + t >= 10.4
 b_397: x23 + 2 x24 + t >= 10.4
 b_398: x23 + 2 x24 + t >= 10.4
 b_399: x23 + 2 x24 + t >= 10.4
 b_400: x23 + 2 x24 + t >= 10.4
Bounds
 0 <= x23 <= 1
 0 <= x24 <= 1
Binaries
 x23  x24 
End
